SCIP version 5.0.0 [precision: 8 byte] [memory: block] [mode: optimized] [LP solver: NONE] [GitHash: 3bbd232]
Copyright (C) 2002-2017 Konrad-Zuse-Zentrum fuer Informationstechnik Berlin (ZIB)

External codes: 
  Readline EditLine w  GNU library for command line editing (gnu.org/s/readline)
  CppAD 20160000.1     Algorithmic Differentiation of C++ algorithms developed by B. Bell (www.coin-or.org/CppAD)
  ZLIB 1.2.5           General purpose compression library by J. Gailly and M. Adler (zlib.net)
  GMP 6.1.2            GNU Multiple Precision Arithmetic Library developed by T. Granlund (gmplib.org)

user parameter file <scip.set> not found - using default parameters

read problem <../../Split_data/output/breast/0/3_sample_breast.logreg>
============

File name	:	../../Split_data/output/breast/0/3_sample_breast.logreg
Problem name 	:	3_sample_breast
Number of data	:	155
Number of var	:	33
The given data has linear dependence
17 sets of column vector are linearly dependent:
elements are all 0
elements are all 0
elements are all 0
elements are all 0
elements are all 0
elements are all 0

[dim=1] time: 0.004545
[dim=2] time: 0.007573
[dim=3] time: 0.009972
[dim=4] time: 0.012091
[dim=5] time: 0.014167
[dim=6] time: 0.016093
[dim=7] Time of forward = 0.017707sec.
AIC: 145.816
k: 6

[dim=16] time: 0.004709
[dim=15] time: 0.006828
[dim=14] time: 0.009101
[dim=13] time: 0.011115
[dim=12] time: 0.013318
[dim=11] time: 0.01675
[dim=10] time: 0.020715
[dim=9] time: 0.023454
[dim=8] Time of backward = 0.025278sec.
AIC: 145.034
k: 9
